1 2 32
2 3 32
3 4 32
4 49 32
4 5 49
5 6 49
6 60 49
6 7 60
7 8 60
8 58 60
8 9 58
9 10 58
10 56 58
10 11 56
11 12 56
12 55 56
12 13 55
13 14 55
14 36 55
14 15 36
15 16 36
16 17 36
17 46 36
17 27 46
27 25 46
25 43 46
25 23 43
23 28 43
28 22 40
22 20 40
20 37 40
20 18 37
18 1 37
1 32 37
37 32 40
32 28 40
28 32 34
28 34 36
28 36 43
43 36 46
32 49 51
32 51 34
34 51 52
34 52 53
34 53 36
36 53 55
51 49 62
51 62 52
52 62 64
52 64 53
53 64 55
55 66 56
56 66 58
58 66 68
58 68 60
60 68 49
69 70 1
70 2 1
70 3 2
70 4 3
70 71 4
71 5 4
71 6 5
71 7 6
71 8 7
71 9 8
73 10 9
73 11 10
73 12 11
73 13 12
73 14 13
73 74 14
74 15 14
74 16 15
74 17 16
74 75 17
75 27 17
75 25 27
75 76 25
76 23 25
76 28 23
76 22 28
76 20 22
76 69 20
69 18 20
69 1 18
71 73 9